206 3540
 2 3 4 5 6 7 8 9 10 11 12 13 14 15 16 33 36 41 43 45 47 48 51 54 56 57 59 60 61 62 63 64 65 66 67 68 69 70 71 72 73 74 75 76 77 78 79 80 81 82 83 84 85 87 89 90 91 95 97 102 103 104 105 106 113 116 117 118 120 121 122 123 124 125 126 127 128 129 130 131 132 133 134 135 136 137 138 139 140 141 142 143 144 147 148 149 151 157 158 159 160 161 162 163 165 167 168 169 170 171 172 173 174 175 176 177 178 179 180 181 185 186 187 188 189 190 191 192 193 194 195 196 197 199 200 201 202 203 205 206
 3 4 5 6 7 8 9 10 11 12 13 14 15 16 33 36 41 43 45 47 48 51 54 56 57 59 60 61 62 63 64 65 66 67 68 69 70 71 72 73 74 75 76 77 78 79 80 81 82 83 84 85 87 89 90 91 95 97 102 103 104 105 106 113 116 117 118 120 121 122 123 124 125 126 127 128 129 130 131 132 133 134 135 136 137 138 139 140 141 142 143 144 147 148 149 151 157 158 159 160 161 162 163 165 167 168 169 170 171 172 173 174 175 176 177 178 179 180 181 185 186 187 188 189 190 191 192 193 194 195 196 197 199 200 201 202 203 205 206
 4 5 6 7 8 9 10 11 12 13 14 15 16 33 36 41 43 45 47 48 51 54 56 57 59 60 61 62 63 64 65 66 67 68 69 70 71 72 73 74 75 76 77 78 79 80 81 82 83 84 85 87 89 90 91 95 97 102 103 104 105 106 113 116 117 118 120 121 122 123 124 125 126 127 128 129 130 131 132 133 134 135 141 142 143 144 147 148 149 151 157 158 159 160 161 162 163 165 167 168 169 170 171 172 173 174 175 176 177 178 179 180 181 185 186 187 188 189 190 191 192 193 194 195 196 197 199 200 201 202 203 205 206
 5 6 7 8 9 10 11 12 13 14 15 16 33 36 41 43 45 47 48 51 54 56 57 59 60 61 70 71 72 73 74 75 76 77 78 80 82 85 87 89 90 91 95 97 102 103 104 105 106 113 116 117 118 120 121 122 123 124 125 126 127 128 129 130 131 132 133 134 135 141 142 143 144 147 148 149 151 157 158 159 160 161 162 163 165 167 168 169 170 171 172 173 174 175 176 177 178 179 180 181 185 186 187 188 189 190 191 192 193 194 195 196 197 199 200 201 202 203 205 206
 6 7 8 9 10 11 12 13 14 15 16 33 36 41 43 45 47 48 51 54 56 57 59 60 61 62 70 71 72 73 74 75 76 77 78 80 82 85 87 89 90 91 95 97 102 103 104 105 106 113 116 117 118 120 121 122 123 124 125 126 127 128 129 130 131 132 133 134 135 140 141 142 143 144 147 148 149 151 157 158 159 160 161 162 163 165 167 168 169 170 171 172 173 174 175 176 177 178 179 180 181 185 186 187 188 189 190 191 192 193 194 195 196 197 199 200 201 202 203 205 206
 7 8 9 10 11 12 13 14 15 16 33 36 41 43 45 47 48 51 54 56 57 59 60 61 62 63 70 71 72 73 74 75 76 77 78 80 82 85 87 89 90 91 95 97 102 103 104 105 106 113 116 117 118 120 121 122 123 124 125 126 127 128 129 130 131 132 133 134 135 139 140 141 142 143 144 147 148 149 151 157 158 159 160 161 162 163 165 167 168 169 170 171 172 173 174 175 176 177 178 179 180 181 185 186 187 188 189 190 191 192 193 194 195 196 197 199 200 201 202 203 205 206
 8 9 10 11 12 13 14 15 16 33 36 41 43 45 47 48 51 54 56 57 59 60 61 62 63 64 70 71 72 73 74 75 76 77 78 80 82 85 87 89 90 91 95 97 102 103 104 105 106 113 116 117 118 120 121 122 123 124 125 126 127 128 129 130 131 132 133 134 135 138 139 140 141 142 143 144 147 148 149 151 157 158 159 160 161 162 163 165 167 168 169 170 171 172 173 174 175 176 177 178 179 180 181 185 186 187 188 189 190 191 192 193 194 195 196 197 199 200 201 202 203 205 206
 9 10 11 12 13 14 15 16 33 36 41 43 45 47 48 51 54 56 57 59 60 61 62 63 64 65 70 71 72 73 74 75 76 77 78 80 82 85 87 89 90 91 95 97 102 103 104 105 106 113 116 117 118 120 121 122 123 124 125 126 127 128 129 130 131 132 133 134 135 137 138 139 140 141 142 143 144 147 148 149 151 157 158 159 160 161 162 163 165 167 168 169 170 171 172 173 174 175 176 177 178 179 180 181 185 186 187 188 189 190 191 192 193 194 195 196 197 199 200 201 202 203 205 206
 10 11 12 13 14 15 16 33 36 41 43 45 47 48 51 54 56 57 59 60 61 62 63 64 65 66 70 71 72 73 74 75 76 77 78 80 82 85 87 89 90 91 95 97 102 103 104 105 106 113 116 117 118 120 121 122 123 124 125 126 127 128 129 130 131 132 133 134 135 136 137 138 139 140 141 142 143 144 147 148 149 151 157 158 159 160 161 162 163 165 167 168 169 170 171 172 173 174 175 176 177 178 179 180 181 185 186 187 188 189 190 191 192 193 194 195 196 197 199 200 201 202 203 205 206
 11 12 13 14 15 16 33 36 41 43 45 47 48 51 54 56 57 59 60 61 62 63 64 65 66 67 70 71 72 73 74 75 76 77 78 80 82 85 87 89 90 91 95 97 102 103 104 105 106 113 116 117 118 120 121 122 123 124 125 126 127 128 129 130 131 132 133 134 135 136 137 138 139 140 141 142 143 144 147 148 149 151 157 158 159 160 161 162 163 165 167 168 169 170 171 172 173 174 175 176 177 178 179 180 181 185 186 187 188 189 190 191 192 193 194 195 196 197 199 200 201 202 203 205 206
 12 13 14 15 16 33 36 41 43 45 47 48 51 54 56 57 59 60 61 62 63 64 65 66 67 68 69 70 71 72 73 74 75 76 77 78 79 80 81 82 83 84 85 87 89 90 91 95 97 102 103 104 105 106 113 116 117 118 120 121 122 123 124 125 126 127 128 129 130 131 132 133 134 135 141 142 143 144 147 148 149 151 157 158 159 160 161 162 163 165 167 168 169 170 171 172 173 174 175 176 177 178 179 180 181 185 186 187 188 189 190 191 192 193 194 195 196 197 199 200 201 202 203 205 206
 13 14 15 16 33 36 41 43 45 47 48 51 54 56 57 59 60 61 62 63 64 65 66 67 68 69 70 71 72 73 74 75 76 77 78 79 80 81 82 83 84 85 87 89 90 91 95 97 102 103 104 105 106 113 116 117 118 120 121 122 123 124 125 126 127 128 129 130 131 132 133 134 135 141 142 143 144 147 148 149 151 157 158 159 160 161 162 163 165 167 168 169 170 171 172 173 174 175 176 177 178 179 180 181 185 186 187 188 189 190 191 192 193 194 195 196 197 199 200 201 202 203 205 206
 14 15 16 33 36 41 43 45 47 48 51 54 56 57 59 60 61 62 63 64 65 66 67 68 69 70 71 72 73 74 75 76 77 78 79 80 81 82 83 84 85 87 89 90 91 95 97 102 103 104 105 106 113 116 117 118 120 121 122 123 124 125 126 127 128 129 130 131 132 133 134 135 141 142 143 144 147 148 149 151 157 158 159 160 161 162 163 165 167 168 169 170 171 172 173 174 175 176 177 178 179 180 181 185 186 187 188 189 190 191 192 193 194 195 196 197 199 200 201 202 203 205 206
 15 16 33 36 41 43 45 47 48 51 54 56 57 59 60 61 62 63 64 65 66 67 68 69 70 71 72 73 74 75 76 77 78 79 80 81 82 83 84 85 87 89 90 91 95 97 102 103 104 105 106 113 116 117 118 120 121 122 123 124 125 126 127 128 129 130 131 132 133 134 135 141 142 143 144 147 148 149 151 157 158 159 160 161 162 163 165 167 168 169 170 171 172 173 174 175 176 177 178 179 180 181 185 186 187 188 189 190 191 192 193 194 195 196 197 199 200 201 202 203 205 206
 16 33 36 41 43 45 47 48 51 54 56 57 59 60 61 67 68 69 70 71 72 73 74 75 76 77 78 79 80 81 82 83 84 85 87 89 90 91 95 97 102 103 104 105 106 113 116 117 118 120 121 122 123 124 125 126 127 128 129 130 131 132 133 134 135 141 142 143 144 147 148 149 151 157 158 159 160 161 162 163 165 167 168 169 170 171 172 173 174 175 176 177 178 179 180 181 185 186 187 188 189 190 191 192 193 194 195 196 197 199 200 201 202 203 205 206
 33 36 41 43 45 47 48 51 54 56 57 59 60 61 62 63 64 65 66 67 68 69 70 71 72 73 74 75 76 77 78 79 80 81 82 83 84 85 87 89 90 91 95 97 102 103 104 105 106 113 116 117 118 120 121 122 123 124 125 126 127 128 129 130 131 132 133 134 135 136 137 138 139 140 141 142 143 144 147 148 149 151 157 158 159 160 161 162 163 165 167 168 169 170 171 172 173 174 175 176 177 178 179 180 181 185 186 187 188 189 190 191 192 193 194 195 196 197 199 200 201 202 203 205 206
 18 19 20 21 22 23 24 25 26 27 28 29 30 31 32 33 36 41 43 45 47 48 51 54 56 57 59 60 61 62 63 64 65 66 67 68 69 70 71 72 73 74 75 76 77 78 79 80 81 82 83 84 85 87 89 90 91 95 97 102 103 104 105 106 113 116 117 118 120 121 122 123 124 125 126 127 128 129 130 131 132 133 134 135 136 137 138 139 140 141 142 143 144 147 148 149 151 157 158 159 160 161 162 163 165 167 168 169 170 171 172 173 174 175 176 177 178 179 180 181 185 186 187 188 189 190 191 192 193 194 195 196 197 199 200 201 202 203 205 206
 19 20 21 22 23 24 25 26 27 28 29 30 31 32 62 63 64 65 66 67 68 69 79 81 83 84 136 137 138 139 140
 20 21 22 23 24 25 26 27 28 29 30 31 32 62 63 64 65 66 67 68 69 70 79 81 83 84 135 136 137 138 139 140
 21 22 23 24 25 26 27 28 29 30 31 32 62 63 64 65 66 67 68 69 70 71 79 81 83 84 134 135 136 137 138 139 140
 22 23 24 25 26 27 28 29 30 31 32 62 63 64 65 66 67 68 69 70 71 72 79 81 83 84 133 134 135 136 137 138 139 140
 23 24 25 26 27 28 29 30 31 32 62 63 64 65 66 67 68 69 70 71 72 73 79 81 83 84 132 133 134 135 136 137 138 139 140
 24 25 26 27 28 29 30 31 32 62 63 64 65 66 67 68 69 70 71 72 73 74 79 81 83 84 131 132 133 134 135 136 137 138 139 140
 25 26 27 28 29 30 31 32 62 63 64 65 66 67 68 69 70 71 72 73 74 75 79 81 83 84 130 131 132 133 134 135 136 137 138 139 140
 26 27 28 29 30 31 32 62 63 64 65 66 67 68 69 70 71 72 73 74 75 76 79 81 83 84 129 130 131 132 133 134 135 136 137 138 139 140
 27 28 29 30 31 32 62 63 64 65 66 67 68 69 70 71 72 73 74 75 76 77 79 81 83 84 128 129 130 131 132 133 134 135 136 137 138 139 140
 28 29 30 31 32 33 36 41 43 45 47 48 51 54 56 57 59 60 61 62 63 64 65 66 67 68 69 79 81 83 84 95 97 102 103 104 105 106 113 116 117 118 120 121 122 123 127 128 129 130 131 132 133 134 135 136 137 138 139 140 141 142 143 144 147 148 149 151 157 158 159 160 161 162 163 165 167 168 169 170 171 172 173 174 175 176 177 178 179 180 181 185 186 187 188 189 190 191 192 193 194 195 196 197 199 200 201 202 203 205 206
 29 30 31 32 33 36 41 43 45 47 48 54 62 63 64 65 66 67 68 69 79 81 83 84 136 137 138 139 140
 30 31 32 33 36 41 43 45 47 48 54 62 63 64 65 66 67 68 69 79 81 83 84 136 137 138 139 140
 31 32 33 36 41 43 45 47 48 54 62 63 64 65 66 67 68 69 79 81 83 84 136 137 138 139 140
 32 33 36 41 43 45 47 48 54 62 63 64 65 66 67 68 69 79 81 83 84 136 137 138 139 140
 33 36 41 43 45 47 48 54 62 63 64 65 66 67 68 69 79 81 83 84 136 137 138 139 140
 36 41 43 45 47 48 51 54 59 60 61 95 97 102 103 104 105 106 113 116 117 118 120 121 122 123 141 142 143 144 147 148 149 151 157 158 159 160 205 206


 41 43 45 47 48 51 54 56 57 59 60 61 95 97 102 103 104 105 106 113 116 117 118 120 121 122 123 124 125 126 127 128 129 130 131 132 133 134 135 141 142 143 144 147 148 149 151 157 158 159 160 161 162 163 165 167 168 169 170 171 172 173 174 175 176 177 178 179 180 181 185 186 187 188 189 190 191 192 193 194 195 196 197 199 200 201 202 203 205 206




 43 45 48 51 54 56 57 59 60 61 102 103 104 105 106 113 116 117 118 120 121 122 123 141 142 143 144 147 148 149 151 157 158 159 160 161 162 163 165 167 168 169 170 171 172 173 174 175 176 177 178 179 180 181 185 186 187 188 189 190 191 192 193 194 195 196 197 199 200 201 202 203 205 206

 45 48 51 54 56 57 59 60 61 102 103 104 105 106 113 116 117 118 120 121 122 123 141 142 143 144 147 148 149 151 157 158 159 160 161 162 163 165 167 168 169 170 171 172 173 174 175 176 177 178 179 180 181 185 186 187 188 189 190 191 192 193 194 195 196 197 199 200 201 202 203 205 206

 48 51 54 56 57 59 60 61 102 103 104 105 106 113 116 117 118 120 121 122 123 141 142 143 144 147 148 149 151 157 158 159 160 161 162 163 165 167 168 169 170 171 172 173 174 175 176 177 185 186 187 188 189 190 191 192 193 194 195 196 197 199 200 201 202 203 205 206

 48 51 87 89 90 91 95
 51 54 59 60 61 95 97 102 103 104 105 106 113 116 117 118 120 121 122 123 141 142 143 144 147 148 149 151 157 158 159 160 185 186 187 205 206


 54 56 57 59 60 61 95 97 102 103 104 105 106 113 116 117 118 120 121 122 123 141 142 143 144 149 151 157 158 159 160 161 162 163 165 167 168 169 170 171 172 173 174 175 176 177 178 179 180 181 185 186 187 188 189 190 191 192 193 194 195 196 197 199 200 201 202 203 205 206


 56 57 59 60 61 102 103 104 105 106 113 116 117 118 120 121 122 123 141 142 143 144 147 148 149 151 157 158 159 160 161 162 163 165 167 168 169 170 171 172 173 174 175 176 177 178 179 180 181 185 186 187 188 189 190 191 192 193 194 195 196 197 199 200 201 202 203 205 206

 57 61 121 161 165 186 188 195 199 200 201 202 203
 61 121 167 168 169 170 171 172 173 174 175 176 177 178 179 180 181

 60 116 117 118
 61 116 117 118 120
 120 121 122 123 141 142 143 144 147 148 157 158 159 160 161 162 163 165 167 168 169 170 171 172 173 174 175 176 177 178 179 180 181 185 186 187 188 189 190 191 192 193 194 195 196 197 199 200 201 202 203





 68 69 79 81 83 84 136 137 138 139 140
 69 79 81 83 84 136 137 138 139 140
 79 81 83 84 136 137 138 139 140









 81 83 84

 83 84

 84





 90













 104


 113









 117




 122 123 141 142 143 144 147 148 157 158 159 160 161 162 163 165 167 168 169 170 171 172 173 174 175 176 177 178 179 180 181 185 186 187 188 189 190 191 192 193 194 195 196 197 199 200 201 202 203





 128 129 130 131 132 133 134 135
 129 130 131 132 133 134 135
 130 131 132 133 134 135
 131 132 133 134 135
 132 133 134 135
 133 134 135
 134 135
 135

 137 138 139 140
 138 139 140
 139 140
 140

















 158



 162 163 165





 168 169 170 171 172 173 174 175 176 177 178 179 180 181

 170 171 172 173 174 175


 173 174












 186 187 188 189 190 191 192 193 194 195
 187 188 189 190 191 192 193 194 195 196 197 199
 188 189 190 191 192 193 194
 189 190 191 192 193 194 195 196 197 199 200 201 202


 192

 194 195 196

 196 197 199 200





 202 203



 206

